*SENSE:Maximize
NAME          MODEL
ROWS
 N  OBJ
 L  C0000000
 L  C0000001
 L  C0000002
 L  C0000003
 L  C0000004
 L  C0000005
 L  C0000006
 L  C0000007
 L  C0000008
 L  C0000009
 L  C0000010
 L  C0000011
 L  C0000012
 L  C0000013
 L  C0000014
 L  C0000015
 L  C0000016
 L  C0000017
 L  C0000018
 L  C0000019
 L  C0000020
 L  C0000021
 L  C0000022
 L  C0000023
 L  C0000024
 L  C0000025
 L  C0000026
 L  C0000027
 L  C0000028
COLUMNS
    X0000000  C0000000   1.000000000000e+00
    X0000000  C0000028   2.864417400000e+01
    X0000000  OBJ        3.959904000000e+02
    X0000001  C0000001   1.000000000000e+00
    X0000001  C0000002   1.000000000000e+00
    X0000001  C0000028   2.340008676000e+00
    X0000001  OBJ        3.234936960000e+01
    X0000002  C0000003   1.000000000000e+00
    X0000002  C0000004   1.000000000000e+00
    X0000002  C0000028   2.312158780800e+00
    X0000002  OBJ        3.196435968000e+01
    X0000003  C0000005   1.000000000000e+00
    X0000003  C0000006   1.000000000000e+00
    X0000003  C0000028   7.090561152000e+00
    X0000003  OBJ        9.802321920000e+01
    X0000004  C0000007   1.000000000000e+00
    X0000004  C0000008   1.000000000000e+00
    X0000004  C0000028   2.184077217510e-04
    X0000004  OBJ        3.917178720000e+01
    X0000005  C0000009   1.000000000000e+00
    X0000005  C0000028   2.400084854406e-03
    X0000005  OBJ        4.304592000000e+02
    X0000006  C0000010   1.000000000000e+00
    X0000006  C0000011   1.000000000000e+00
    X0000006  C0000028   1.589996333688e-04
    X0000006  OBJ        2.851684800000e+01
    X0000007  C0000012   1.000000000000e+00
    X0000007  C0000013   1.000000000000e+00
    X0000007  C0000028   4.131914545891e-04
    X0000007  OBJ        7.410657280000e+01
    X0000008  C0000014   1.000000000000e+00
    X0000008  C0000015   1.000000000000e+00
    X0000008  C0000028   3.371089008915e-04
    X0000008  OBJ        3.596400444000e+01
    X0000009  C0000016   1.000000000000e+00
    X0000009  C0000017   1.000000000000e+00
    X0000009  C0000028   3.187671408055e-04
    X0000009  OBJ        3.400723872000e+01
    X0000010  C0000018   1.000000000000e+00
    X0000010  C0000028   7.541974196844e-03
    X0000010  OBJ        8.046052560000e+02
    X0000011  C0000019   1.000000000000e+00
    X0000011  C0000020   1.000000000000e+00
    X0000011  C0000028   1.149573505982e-03
    X0000011  OBJ        1.226406854400e+02
    X0000012  C0000021   1.000000000000e+00
    X0000012  C0000022   1.000000000000e+00
    X0000012  C0000028   1.304834450487e-04
    X0000012  OBJ        2.410878132000e+02
    X0000013  C0000023   1.000000000000e+00
    X0000013  C0000024   1.000000000000e+00
    X0000013  C0000028   3.895165649653e-05
    X0000013  OBJ        7.196905080000e+01
    X0000014  C0000025   1.000000000000e+00
    X0000014  C0000026   1.000000000000e+00
    X0000014  C0000028   6.094254392590e-05
    X0000014  OBJ        1.126005267600e+02
    X0000015  C0000027   1.000000000000e+00
    X0000015  C0000028   6.859452822254e-04
    X0000015  OBJ        1.267387200000e+03
    MARK      'MARKER'                 'INTORG'
    X0000016  C0000000  -1.000000000000e+00
    X0000016  C0000001  -1.000000000000e+00
    X0000016  C0000003  -1.000000000000e+00
    X0000016  C0000005  -1.000000000000e+00
    X0000016  C0000008   1.000000000000e+00
    X0000016  C0000015   1.000000000000e+00
    X0000016  C0000022   1.000000000000e+00
    X0000016  OBJ       -4.604000000000e+00
    MARK      'MARKER'                 'INTEND'
    MARK      'MARKER'                 'INTORG'
    X0000017  C0000002   1.000000000000e+00
    X0000017  C0000007  -1.000000000000e+00
    X0000017  C0000009  -1.000000000000e+00
    X0000017  C0000010  -1.000000000000e+00
    X0000017  C0000012  -1.000000000000e+00
    X0000017  C0000017   1.000000000000e+00
    X0000017  C0000024   1.000000000000e+00
    X0000017  OBJ       -2.618492807901e+04
    MARK      'MARKER'                 'INTEND'
    MARK      'MARKER'                 'INTORG'
    X0000018  C0000004   1.000000000000e+00
    X0000018  C0000011   1.000000000000e+00
    X0000018  C0000014  -1.000000000000e+00
    X0000018  C0000016  -1.000000000000e+00
    X0000018  C0000018  -1.000000000000e+00
    X0000018  C0000019  -1.000000000000e+00
    X0000018  C0000026   1.000000000000e+00
    X0000018  OBJ       -7.879083844994e+04
    MARK      'MARKER'                 'INTEND'
    MARK      'MARKER'                 'INTORG'
    X0000019  C0000006   1.000000000000e+00
    X0000019  C0000013   1.000000000000e+00
    X0000019  C0000020   1.000000000000e+00
    X0000019  C0000021  -1.000000000000e+00
    X0000019  C0000023  -1.000000000000e+00
    X0000019  C0000025  -1.000000000000e+00
    X0000019  C0000027  -1.000000000000e+00
    X0000019  OBJ       -8.164287837874e+03
    MARK      'MARKER'                 'INTEND'
RHS
    RHS       C0000000   0.000000000000e+00
    RHS       C0000001   0.000000000000e+00
    RHS       C0000002   1.000000000000e+00
    RHS       C0000003   0.000000000000e+00
    RHS       C0000004   1.000000000000e+00
    RHS       C0000005   0.000000000000e+00
    RHS       C0000006   1.000000000000e+00
    RHS       C0000007   0.000000000000e+00
    RHS       C0000008   1.000000000000e+00
    RHS       C0000009   0.000000000000e+00
    RHS       C0000010   0.000000000000e+00
    RHS       C0000011   1.000000000000e+00
    RHS       C0000012   0.000000000000e+00
    RHS       C0000013   1.000000000000e+00
    RHS       C0000014   0.000000000000e+00
    RHS       C0000015   1.000000000000e+00
    RHS       C0000016   0.000000000000e+00
    RHS       C0000017   1.000000000000e+00
    RHS       C0000018   0.000000000000e+00
    RHS       C0000019   0.000000000000e+00
    RHS       C0000020   1.000000000000e+00
    RHS       C0000021   0.000000000000e+00
    RHS       C0000022   1.000000000000e+00
    RHS       C0000023   0.000000000000e+00
    RHS       C0000024   1.000000000000e+00
    RHS       C0000025   0.000000000000e+00
    RHS       C0000026   1.000000000000e+00
    RHS       C0000027   0.000000000000e+00
    RHS       C0000028   1.340000000000e+02
BOUNDS
 BV BND       X0000016
 BV BND       X0000017
 BV BND       X0000018
 BV BND       X0000019
ENDATA
